p cnf 390 938
1 0
13 14 0
-13 -14 0
15 16 0
-15 -16 0
-12 13 0
-12 15 0
12 -13 -15 0
17 18 0
-17 -18 0
-11 12 0
-11 17 0
11 -12 -17 0
-20 12 0
20 -12 0
21 -18 0
-21 18 0
-19 20 0
-19 21 0
19 -20 -21 0
10 -11 0
10 -19 0
-10 11 19 0
24 14 0
-24 -14 0
25 -16 0
-25 16 0
-23 24 0
-23 25 0
23 -24 -25 0
26 18 0
-26 -18 0
-22 23 0
-22 26 0
22 -23 -26 0
9 -10 0
9 -22 0
-9 10 22 0
29 -14 0
-29 14 0
30 16 0
-30 -16 0
-28 29 0
-28 30 0
28 -29 -30 0
31 18 0
-31 -18 0
-27 28 0
-27 31 0
27 -28 -31 0
8 -9 0
8 -27 0
-8 9 27 0
-33 23 0
33 -23 0
34 -18 0
-34 18 0
-32 33 0
-32 34 0
32 -33 -34 0
-7 8 0
-7 32 0
7 -8 -32 0
42 43 0
-42 -43 0
44 45 0
-44 -45 0
-41 42 0
-41 44 0
41 -42 -44 0
46 47 0
-46 -47 0
-40 41 0
-40 46 0
40 -41 -46 0
-49 41 0
49 -41 0
50 -47 0
-50 47 0
-48 49 0
-48 50 0
48 -49 -50 0
39 -40 0
39 -48 0
-39 40 48 0
53 43 0
-53 -43 0
54 -45 0
-54 45 0
-52 53 0
-52 54 0
52 -53 -54 0
55 47 0
-55 -47 0
-51 52 0
-51 55 0
51 -52 -55 0
38 -39 0
38 -51 0
-38 39 51 0
58 -43 0
-58 43 0
59 45 0
-59 -45 0
-57 58 0
-57 59 0
57 -58 -59 0
60 47 0
-60 -47 0
-56 57 0
-56 60 0
56 -57 -60 0
37 -38 0
37 -56 0
-37 38 56 0
-62 52 0
62 -52 0
63 -47 0
-63 47 0
-61 62 0
-61 63 0
61 -62 -63 0
-36 37 0
-36 61 0
36 -37 -61 0
-64 32 0
64 -32 0
-35 36 0
-35 64 0
35 -36 -64 0
6 -7 0
6 -35 0
-6 7 35 0
72 73 0
-72 -73 0
74 75 0
-74 -75 0
-71 72 0
-71 74 0
71 -72 -74 0
76 77 0
-76 -77 0
-70 71 0
-70 76 0
70 -71 -76 0
-79 71 0
79 -71 0
80 -77 0
-80 77 0
-78 79 0
-78 80 0
78 -79 -80 0
69 -70 0
69 -78 0
-69 70 78 0
83 73 0
-83 -73 0
84 -75 0
-84 75 0
-82 83 0
-82 84 0
82 -83 -84 0
85 77 0
-85 -77 0
-81 82 0
-81 85 0
81 -82 -85 0
68 -69 0
68 -81 0
-68 69 81 0
88 -73 0
-88 73 0
89 75 0
-89 -75 0
-87 88 0
-87 89 0
87 -88 -89 0
90 77 0
-90 -77 0
-86 87 0
-86 90 0
86 -87 -90 0
67 -68 0
67 -86 0
-67 68 86 0
-92 82 0
92 -82 0
93 -77 0
-93 77 0
-91 92 0
-91 93 0
91 -92 -93 0
-66 67 0
-66 91 0
66 -67 -91 0
-95 32 0
95 -32 0
-96 61 0
96 -61 0
-94 95 0
-94 96 0
94 -95 -96 0
-65 66 0
-65 94 0
65 -66 -94 0
5 -6 0
5 -65 0
-5 6 65 0
104 105 0
-104 -105 0
106 107 0
-106 -107 0
-103 104 0
-103 106 0
103 -104 -106 0
108 109 0
-108 -109 0
-102 103 0
-102 108 0
102 -103 -108 0
-111 103 0
111 -103 0
112 -109 0
-112 109 0
-110 111 0
-110 112 0
110 -111 -112 0
101 -102 0
101 -110 0
-101 102 110 0
115 105 0
-115 -105 0
116 -107 0
-116 107 0
-114 115 0
-114 116 0
114 -115 -116 0
117 109 0
-117 -109 0
-113 114 0
-113 117 0
113 -114 -117 0
100 -101 0
100 -113 0
-100 101 113 0
120 -105 0
-120 105 0
121 107 0
-121 -107 0
-119 120 0
-119 121 0
119 -120 -121 0
122 109 0
-122 -109 0
-118 119 0
-118 122 0
118 -119 -122 0
99 -100 0
99 -118 0
-99 100 118 0
-124 114 0
124 -114 0
125 -109 0
-125 109 0
-123 124 0
-123 125 0
123 -124 -125 0
-98 99 0
-98 123 0
98 -99 -123 0
-127 94 0
127 -94 0
-128 91 0
128 -91 0
-126 127 0
-126 128 0
126 -127 -128 0
-97 98 0
-97 126 0
97 -98 -126 0
4 -5 0
4 -97 0
-4 5 97 0
136 137 0
-136 -137 0
138 139 0
-138 -139 0
-135 136 0
-135 138 0
135 -136 -138 0
140 141 0
-140 -141 0
-134 135 0
-134 140 0
134 -135 -140 0
-143 135 0
143 -135 0
144 -141 0
-144 141 0
-142 143 0
-142 144 0
142 -143 -144 0
133 -134 0
133 -142 0
-133 134 142 0
147 137 0
-147 -137 0
148 -139 0
-148 139 0
-146 147 0
-146 148 0
146 -147 -148 0
149 141 0
-149 -141 0
-145 146 0
-145 149 0
145 -146 -149 0
132 -133 0
132 -145 0
-132 133 145 0
152 -137 0
-152 137 0
153 139 0
-153 -139 0
-151 152 0
-151 153 0
151 -152 -153 0
154 141 0
-154 -141 0
-150 151 0
-150 154 0
150 -151 -154 0
131 -132 0
131 -150 0
-131 132 150 0
-156 146 0
156 -146 0
157 -141 0
-157 141 0
-155 156 0
-155 157 0
155 -156 -157 0
-130 131 0
-130 155 0
130 -131 -155 0
-159 126 0
159 -126 0
-160 123 0
160 -123 0
-158 159 0
-158 160 0
158 -159 -160 0
-129 130 0
-129 158 0
129 -130 -158 0
3 -4 0
3 -129 0
-3 4 129 0
-168 158 0
168 -158 0
-169 155 0
169 -155 0
-167 168 0
-167 169 0
167 -168 -169 0
-170 3 0
170 -3 0
166 -167 0
166 -170 0
-166 167 170 0
-177 150 0
177 -150 0
-178 19 0
178 -19 0
-176 177 0
-176 178 0
176 -177 -178 0
-180 155 0
180 -155 0
-181 27 0
181 -27 0
-179 180 0
-179 181 0
179 -180 -181 0
175 -176 0
175 -179 0
-175 176 179 0
-183 145 0
183 -145 0
-184 32 0
184 -32 0
-182 183 0
-182 184 0
182 -183 -184 0
174 -175 0
174 -182 0
-174 175 182 0
-186 142 0
186 -142 0
-187 22 0
187 -22 0
-185 186 0
-185 187 0
185 -186 -187 0
173 -174 0
173 -185 0
-173 174 185 0
-189 145 0
189 -145 0
-190 27 0
190 -27 0
-188 189 0
-188 190 0
188 -189 -190 0
172 -173 0
172 -188 0
-172 173 188 0
-192 134 0
192 -134 0
-193 19 0
193 -19 0
-191 192 0
-191 193 0
191 -192 -193 0
171 -172 0
171 -191 0
-171 172 191 0
-165 166 0
-165 171 0
165 -166 -171 0
-195 166 0
195 -166 0
-202 150 0
202 -150 0
-203 48 0
203 -48 0
-201 202 0
-201 203 0
201 -202 -203 0
-205 155 0
205 -155 0
-206 56 0
206 -56 0
-204 205 0
-204 206 0
204 -205 -206 0
200 -201 0
200 -204 0
-200 201 204 0
-208 145 0
208 -145 0
-209 61 0
209 -61 0
-207 208 0
-207 209 0
207 -208 -209 0
199 -200 0
199 -207 0
-199 200 207 0
-211 142 0
211 -142 0
-212 51 0
212 -51 0
-210 211 0
-210 212 0
210 -211 -212 0
198 -199 0
198 -210 0
-198 199 210 0
-214 145 0
214 -145 0
-215 56 0
215 -56 0
-213 214 0
-213 215 0
213 -214 -215 0
197 -198 0
197 -213 0
-197 198 213 0
-217 134 0
217 -134 0
-218 48 0
218 -48 0
-216 217 0
-216 218 0
216 -217 -218 0
196 -197 0
196 -216 0
-196 197 216 0
-194 195 0
-194 196 0
194 -195 -196 0
164 -165 0
164 -194 0
-164 165 194 0
-220 166 0
220 -166 0
-227 150 0
227 -150 0
-228 78 0
228 -78 0
-226 227 0
-226 228 0
226 -227 -228 0
-230 155 0
230 -155 0
-231 86 0
231 -86 0
-229 230 0
-229 231 0
229 -230 -231 0
225 -226 0
225 -229 0
-225 226 229 0
-233 145 0
233 -145 0
-234 91 0
234 -91 0
-232 233 0
-232 234 0
232 -233 -234 0
224 -225 0
224 -232 0
-224 225 232 0
-236 142 0
236 -142 0
-237 81 0
237 -81 0
-235 236 0
-235 237 0
235 -236 -237 0
223 -224 0
223 -235 0
-223 224 235 0
-239 145 0
239 -145 0
-240 86 0
240 -86 0
-238 239 0
-238 240 0
238 -239 -240 0
222 -223 0
222 -238 0
-222 223 238 0
-242 134 0
242 -134 0
-243 78 0
243 -78 0
-241 242 0
-241 243 0
241 -242 -243 0
221 -222 0
221 -241 0
-221 222 241 0
-219 220 0
-219 221 0
219 -220 -221 0
163 -164 0
163 -219 0
-163 164 219 0
-245 166 0
245 -166 0
-252 150 0
252 -150 0
-253 110 0
253 -110 0
-251 252 0
-251 253 0
251 -252 -253 0
-255 155 0
255 -155 0
-256 118 0
256 -118 0
-254 255 0
-254 256 0
254 -255 -256 0
250 -251 0
250 -254 0
-250 251 254 0
-258 145 0
258 -145 0
-259 123 0
259 -123 0
-257 258 0
-257 259 0
257 -258 -259 0
249 -250 0
249 -257 0
-249 250 257 0
-261 142 0
261 -142 0
-262 113 0
262 -113 0
-260 261 0
-260 262 0
260 -261 -262 0
248 -249 0
248 -260 0
-248 249 260 0
-264 145 0
264 -145 0
-265 118 0
265 -118 0
-263 264 0
-263 265 0
263 -264 -265 0
247 -248 0
247 -263 0
-247 248 263 0
-267 134 0
267 -134 0
-268 110 0
268 -110 0
-266 267 0
-266 268 0
266 -267 -268 0
246 -247 0
246 -266 0
-246 247 266 0
-244 245 0
-244 246 0
244 -245 -246 0
162 -163 0
162 -244 0
-162 163 244 0
-270 166 0
270 -166 0
-277 150 0
277 -150 0
-278 142 0
278 -142 0
-276 277 0
-276 278 0
276 -277 -278 0
-280 155 0
280 -155 0
-281 150 0
281 -150 0
-279 280 0
-279 281 0
279 -280 -281 0
275 -276 0
275 -279 0
-275 276 279 0
-283 145 0
283 -145 0
-284 155 0
284 -155 0
-282 283 0
-282 284 0
282 -283 -284 0
274 -275 0
274 -282 0
-274 275 282 0
-286 142 0
286 -142 0
-287 145 0
287 -145 0
-285 286 0
-285 287 0
285 -286 -287 0
273 -274 0
273 -285 0
-273 274 285 0
-289 145 0
289 -145 0
-290 150 0
290 -150 0
-288 289 0
-288 290 0
288 -289 -290 0
272 -273 0
272 -288 0
-272 273 288 0
-292 134 0
292 -134 0
-293 142 0
293 -142 0
-291 292 0
-291 293 0
291 -292 -293 0
271 -272 0
271 -291 0
-271 272 291 0
-269 270 0
-269 271 0
269 -270 -271 0
161 -162 0
161 -269 0
-161 162 269 0
2 -3 0
2 -161 0
-2 3 161 0
-304 27 0
304 -27 0
-305 48 0
305 -48 0
-303 304 0
-303 305 0
303 -304 -305 0
-307 32 0
307 -32 0
-308 56 0
308 -56 0
-306 307 0
-306 308 0
306 -307 -308 0
302 -303 0
302 -306 0
-302 303 306 0
-310 22 0
310 -22 0
-311 61 0
311 -61 0
-309 310 0
-309 311 0
309 -310 -311 0
301 -302 0
301 -309 0
-301 302 309 0
-313 19 0
313 -19 0
-314 51 0
314 -51 0
-312 313 0
-312 314 0
312 -313 -314 0
300 -301 0
300 -312 0
-300 301 312 0
-316 22 0
316 -22 0
-317 56 0
317 -56 0
-315 316 0
-315 317 0
315 -316 -317 0
299 -300 0
299 -315 0
-299 300 315 0
-319 11 0
319 -11 0
-320 48 0
320 -48 0
-318 319 0
-318 320 0
318 -319 -320 0
298 -299 0
298 -318 0
-298 299 318 0
-327 56 0
327 -56 0
-328 78 0
328 -78 0
-326 327 0
-326 328 0
326 -327 -328 0
-330 61 0
330 -61 0
-331 86 0
331 -86 0
-329 330 0
-329 331 0
329 -330 -331 0
325 -326 0
325 -329 0
-325 326 329 0
-333 51 0
333 -51 0
-334 91 0
334 -91 0
-332 333 0
-332 334 0
332 -333 -334 0
324 -325 0
324 -332 0
-324 325 332 0
-336 48 0
336 -48 0
-337 81 0
337 -81 0
-335 336 0
-335 337 0
335 -336 -337 0
323 -324 0
323 -335 0
-323 324 335 0
-339 51 0
339 -51 0
-340 86 0
340 -86 0
-338 339 0
-338 340 0
338 -339 -340 0
322 -323 0
322 -338 0
-322 323 338 0
-342 40 0
342 -40 0
-343 78 0
343 -78 0
-341 342 0
-341 343 0
341 -342 -343 0
321 -322 0
321 -341 0
-321 322 341 0
-297 298 0
-297 321 0
297 -298 -321 0
-350 86 0
350 -86 0
-351 110 0
351 -110 0
-349 350 0
-349 351 0
349 -350 -351 0
-353 91 0
353 -91 0
-354 118 0
354 -118 0
-352 353 0
-352 354 0
352 -353 -354 0
348 -349 0
348 -352 0
-348 349 352 0
-356 81 0
356 -81 0
-357 123 0
357 -123 0
-355 356 0
-355 357 0
355 -356 -357 0
347 -348 0
347 -355 0
-347 348 355 0
-359 78 0
359 -78 0
-360 113 0
360 -113 0
-358 359 0
-358 360 0
358 -359 -360 0
346 -347 0
346 -358 0
-346 347 358 0
-362 81 0
362 -81 0
-363 118 0
363 -118 0
-361 362 0
-361 363 0
361 -362 -363 0
345 -346 0
345 -361 0
-345 346 361 0
-365 70 0
365 -70 0
-366 110 0
366 -110 0
-364 365 0
-364 366 0
364 -365 -366 0
344 -345 0
344 -364 0
-344 345 364 0
-296 297 0
-296 344 0
296 -297 -344 0
-373 118 0
373 -118 0
-374 142 0
374 -142 0
-372 373 0
-372 374 0
372 -373 -374 0
-376 123 0
376 -123 0
-377 150 0
377 -150 0
-375 376 0
-375 377 0
375 -376 -377 0
371 -372 0
371 -375 0
-371 372 375 0
-379 113 0
379 -113 0
-380 155 0
380 -155 0
-378 379 0
-378 380 0
378 -379 -380 0
370 -371 0
370 -378 0
-370 371 378 0
-382 110 0
382 -110 0
-383 145 0
383 -145 0
-381 382 0
-381 383 0
381 -382 -383 0
369 -370 0
369 -381 0
-369 370 381 0
-385 113 0
385 -113 0
-386 150 0
386 -150 0
-384 385 0
-384 386 0
384 -385 -386 0
368 -369 0
368 -384 0
-368 369 384 0
-388 102 0
388 -102 0
-389 142 0
389 -142 0
-387 388 0
-387 389 0
387 -388 -389 0
367 -368 0
367 -387 0
-367 368 387 0
-295 296 0
-295 367 0
295 -296 -367 0
-390 11 0
390 -11 0
-294 295 0
-294 390 0
294 -295 -390 0
-1 2 0
-1 294 0
1 -2 -294 0
